Ba Zr S
1.000000000
7.0017752844737391    0.0000000000000000    0.0000000000000000
0.0000000000000000    7.0017752844737391    0.0000000000000000
0.0000000000000000    0.0000000000000000   10.0290952175395809
Ba Zr S
  4  4  12
Direct
0.5000000000000000  0.0000000000000000  0.0000000000000000 Ba
0.5000000000000000  0.0000000000000000  0.5000000000000000 Ba
0.0000000000000000  0.5000000000000000  0.0000000000000000 Ba
0.0000000000000000  0.5000000000000000  0.5000000000000000 Ba
0.5000000000000000  0.5000000000000000  0.2500000000000000 Zr
0.5000000000000000  0.5000000000000000  0.7500000000000000 Zr
0.0000000000000000  0.0000000000000000  0.2500000000000000 Zr
0.0000000000000000  0.0000000000000000  0.7500000000000000 Zr
0.79