Ba Zr S
1.000000000
6.9192722370057664    0.0000000000000000    0.0000000000000000
-0.0000000000000000    6.9192722370057664   -0.0000000000000000
0.0000000000000000    0.0000000000000000   10.1651300682595469
Ba Zr S
  4  4  12
Direct
0.5000000000000000  0.0000000000000000  0.2500000000000000 Ba
0.0000000000000000  0.5000000000000000  0.2500000000000000 Ba
0.0000000000000000  0.5000000000000000  0.7500000000000000 Ba
0.5000000000000000  0.0000000000000000  0.7500000000000000 Ba
0.5000000000000000  0.5000000000000000  0.0000000000000000 Zr
0.0000000000000000  0.0000000000000000  0.0000000000000000 Zr
0.0000000000000000  0.0000000000000000  0.5000000000000000 Zr
0.5000000000000000  0.5000000000000000  0.5000000000000000 Zr
0.751 0.251 0.0000000000000000 S
0.749 0.751 0.0000000000000000 S
0.251 0.249 0.0000000000000000 S
0.249 0.749 0.0000000000000000 S
0.0000000000000000  0.0000000000000000  0.2500000000000000 S
0.5000000000000000  0.5000000000000000  0.2500000000000000 S
0.5000000000000000  0.5000000000000000  0.7500000000000000 S
0.0000000000000000  0.0000000000000000  0.7500000000000000 S
0.251 0.751 0.5000000000000000 S
0.249 0.251 0.5000000000000000 S
0.751 0.749 0.5000000000000000 S
0.749 0.249 0.5000000000000000 S
